\ENCODING=ISO-8859-1
\Problem name: IloCplex

Minimize
 obj1: pi_1_0 + pi_0_0 + pi_1_1 + pi_1_2 + pi_1_3 + pi_2_0 + pi_2_1 + pi_2_2
       + pi_2_3 + pi_3_0 + pi_3_1 + pi_3_2 + pi_3_3 + pi_4_0 + pi_4_1 + pi_4_2
       + pi_4_3 + pi_5_0 + pi_5_1 + pi_5_2 + pi_5_3 + pi_6_0 + pi_6_1 + pi_6_2
       + pi_6_3 + pi_7_0 + pi_7_1 + pi_7_2 + pi_7_3 + pi_8_0 + pi_8_1 + pi_8_2
       + pi_8_3 + pi_9_0 + pi_9_1 + pi_9_2 + pi_9_3 + pi_10_0 + pi_10_1
       + pi_10_2 + pi_10_3 + pi_11_0 + pi_11_1 + pi_11_2 + pi_11_3 + pi_12_0
       + pi_12_1 + pi_12_2 + pi_12_3 + pi_13_0 + pi_13_1 + pi_13_2 + pi_13_3
       + pi_14_0 + pi_14_1 + pi_14_2 + pi_14_3 + pi_15_0
Subject To
 c1:   pi_1_0 - pi_0_0 >= 0
 c2:   pi_1_0 - pi_0_0 >= 0
 c3:   - pi_0_0 + pi_1_1 >= 0
 c4:   - pi_0_0 + pi_1_1 >= 0
 c5:   - pi_0_0 + pi_1_2 >= 0
 c6:   - pi_0_0 + pi_1_2 >= 0
 c7:   - pi_0_0 + pi_1_3 >= 0
 c8:   - pi_0_0 + pi_1_3 >= 0
 c9:   - pi_1_0 + pi_2_0 >= 0
 c10:  - pi_1_0 + pi_2_0 >= 0
 c11:  - pi_1_1 + pi_2_1 >= 0
 c12:  - pi_1_1 + pi_2_1 >= 0
 c13:  - pi_1_2 + pi_2_2 >= 0
 c14:  - pi_1_2 + pi_2_2 >= 0
 c15:  - pi_1_3 + pi_2_3 >= 0
 c16:  - pi_1_3 + pi_2_3 >= 0
 c17:  - pi_2_0 + pi_3_0 >= 0
 c18:  - pi_2_0 + pi_3_0 >= 0
 c19:  - pi_2_1 + pi_3_1 >= 0
 c20:  - pi_2_1 + pi_3_1 >= 0
 c21:  - pi_2_2 + pi_3_2 >= 0
 c22:  - pi_2_2 + pi_3_2 >= 0
 c23:  - pi_2_3 + pi_3_3 >= 0
 c24:  - pi_2_3 + pi_3_3 >= 0
 c25:  - pi_3_0 + pi_4_0 >= 0
 c26:  - pi_3_0 + pi_4_0 >= 0
 c27:  - pi_3_1 + pi_4_1 >= 0
 c28:  - pi_3_1 + pi_4_1 >= 0
 c29:  - pi_3_2 + pi_4_2 >= 0
 c30:  - pi_3_2 + pi_4_2 >= 0
 c31:  - pi_3_3 + pi_4_3 >= 0
 c32:  - pi_3_3 + pi_4_3 >= 0
 c33:  - pi_4_0 + pi_5_0 >= 0
 c34:  - pi_4_0 + pi_5_0 >= 0
 c35:  - pi_4_1 + pi_5_1 >= 0
 c36:  - pi_4_1 + pi_5_1 >= 0
 c37:  - pi_4_2 + pi_5_2 >= 0
 c38:  - pi_4_2 + pi_5_2 >= 0
 c39:  - pi_4_3 + pi_5_3 >= 0
 c40:  - pi_4_3 + pi_5_3 >= 0
 c41:  - pi_5_0 + pi_6_0 >= 6
 c42:  - pi_5_0 + pi_6_0 >= -12
 c43:  - pi_5_0 + pi_6_1 >= 9
 c44:  - pi_5_0 + pi_6_1 >= -6
 c45:  - pi_5_1 + pi_6_1 >= 6
 c46:  - pi_5_1 + pi_6_1 >= -12
 c47:  - pi_5_1 + pi_6_2 >= 9
 c48:  - pi_5_1 + pi_6_2 >= -6
 c49:  - pi_5_2 + pi_6_2 >= 6
 c50:  - pi_5_2 + pi_6_2 >= -12
 c51:  - pi_5_2 + pi_6_3 >= 9
 c52:  - pi_5_2 + pi_6_3 >= -6
 c53:  - pi_5_3 + pi_6_3 >= 6
 c54:  - pi_5_3 + pi_6_3 >= -12
 c55:  - pi_6_0 + pi_7_0 >= 0
 c56:  - pi_6_0 + pi_7_0 >= 0
 c57:  - pi_6_0 + pi_7_1 >= 3
 c58:  - pi_6_0 + pi_7_1 >= 6
 c59:  - pi_6_0 + pi_7_2 >= 6
 c60:  - pi_6_0 + pi_7_2 >= 12
 c61:  - pi_6_1 + pi_7_1 >= 0
 c62:  - pi_6_1 + pi_7_1 >= 0
 c63:  - pi_6_1 + pi_7_2 >= 3
 c64:  - pi_6_1 + pi_7_2 >= 6
 c65:  - pi_6_1 + pi_7_3 >= 6
 c66:  - pi_6_1 + pi_7_3 >= 12
 c67:  - pi_6_2 + pi_7_2 >= 0
 c68:  - pi_6_2 + pi_7_2 >= 0
 c69:  - pi_6_2 + pi_7_3 >= 3
 c70:  - pi_6_2 + pi_7_3 >= 6
 c71:  - pi_6_3 + pi_7_3 >= 0
 c72:  - pi_6_3 + pi_7_3 >= 0
 c73:  - pi_7_0 + pi_8_0 >= 0
 c74:  - pi_7_0 + pi_8_0 >= 0
 c75:  - pi_7_0 + pi_8_1 >= 3
 c76:  - pi_7_0 + pi_8_1 >= 6
 c77:  - pi_7_0 + pi_8_2 >= 6
 c78:  - pi_7_0 + pi_8_2 >= 12
 c79:  - pi_7_1 + pi_8_1 >= 0
 c80:  - pi_7_1 + pi_8_1 >= 0
 c81:  - pi_7_1 + pi_8_2 >= 3
 c82:  - pi_7_1 + pi_8_2 >= 6
 c83:  - pi_7_1 + pi_8_3 >= 6
 c84:  - pi_7_1 + pi_8_3 >= 12
 c85:  - pi_7_2 + pi_8_2 >= 0
 c86:  - pi_7_2 + pi_8_2 >= 0
 c87:  - pi_7_2 + pi_8_3 >= 3
 c88:  - pi_7_2 + pi_8_3 >= 6
 c89:  - pi_7_3 + pi_8_3 >= 0
 c90:  - pi_7_3 + pi_8_3 >= 0
 c91:  - pi_8_0 + pi_9_0 >= 0
 c92:  - pi_8_0 + pi_9_0 >= 0
 c93:  - pi_8_0 + pi_9_1 >= 3
 c94:  - pi_8_0 + pi_9_1 >= 6
 c95:  - pi_8_0 + pi_9_2 >= 6
 c96:  - pi_8_0 + pi_9_2 >= 12
 c97:  - pi_8_1 + pi_9_1 >= 0
 c98:  - pi_8_1 + pi_9_1 >= 0
 c99:  - pi_8_1 + pi_9_2 >= 3
 c100: - pi_8_1 + pi_9_2 >= 6
 c101: - pi_8_1 + pi_9_3 >= 6
 c102: - pi_8_1 + pi_9_3 >= 12
 c103: - pi_8_2 + pi_9_2 >= 0
 c104: - pi_8_2 + pi_9_2 >= 0
 c105: - pi_8_2 + pi_9_3 >= 3
 c106: - pi_8_2 + pi_9_3 >= 6
 c107: - pi_8_3 + pi_9_3 >= 0
 c108: - pi_8_3 + pi_9_3 >= 0
 c109: - pi_9_0 + pi_10_0 >= 0
 c110: - pi_9_0 + pi_10_0 >= 0
 c111: - pi_9_0 + pi_10_1 >= 3
 c112: - pi_9_0 + pi_10_1 >= 6
 c113: - pi_9_0 + pi_10_2 >= 6
 c114: - pi_9_0 + pi_10_2 >= 12
 c115: - pi_9_0 + pi_10_3 >= 9
 c116: - pi_9_0 + pi_10_3 >= 18
 c117: - pi_9_1 + pi_10_1 >= 0
 c118: - pi_9_1 + pi_10_1 >= 0
 c119: - pi_9_1 + pi_10_2 >= 3
 c120: - pi_9_1 + pi_10_2 >= 6
 c121: - pi_9_1 + pi_10_3 >= 6
 c122: - pi_9_1 + pi_10_3 >= 12
 c123: - pi_9_2 + pi_10_2 >= 0
 c124: - pi_9_2 + pi_10_2 >= 0
 c125: - pi_9_2 + pi_10_3 >= 3
 c126: - pi_9_2 + pi_10_3 >= 6
 c127: - pi_9_3 + pi_10_3 >= 0
 c128: - pi_9_3 + pi_10_3 >= 0
 c129: - pi_10_0 + pi_11_0 >= 0
 c130: - pi_10_0 + pi_11_0 >= 0
 c131: - pi_10_0 + pi_11_1 >= 3
 c132: - pi_10_0 + pi_11_1 >= 6
 c133: - pi_10_0 + pi_11_2 >= 6
 c134: - pi_10_0 + pi_11_2 >= 12
 c135: - pi_10_0 + pi_11_3 >= 9
 c136: - pi_10_0 + pi_11_3 >= 18
 c137: - pi_10_1 + pi_11_1 >= 0
 c138: - pi_10_1 + pi_11_1 >= 0
 c139: - pi_10_1 + pi_11_2 >= 3
 c140: - pi_10_1 + pi_11_2 >= 6
 c141: - pi_10_1 + pi_11_3 >= 6
 c142: - pi_10_1 + pi_11_3 >= 12
 c143: - pi_10_2 + pi_11_2 >= 0
 c144: - pi_10_2 + pi_11_2 >= 0
 c145: - pi_10_2 + pi_11_3 >= 3
 c146: - pi_10_2 + pi_11_3 >= 6
 c147: - pi_10_3 + pi_11_3 >= 0
 c148: - pi_10_3 + pi_11_3 >= 0
 c149: - pi_11_0 + pi_12_0 >= 0
 c150: - pi_11_0 + pi_12_0 >= 0
 c151: - pi_11_0 + pi_12_1 >= 3
 c152: - pi_11_0 + pi_12_1 >= 6
 c153: - pi_11_0 + pi_12_2 >= 6
 c154: - pi_11_0 + pi_12_2 >= 12
 c155: - pi_11_0 + pi_12_3 >= 9
 c156: - pi_11_0 + pi_12_3 >= 18
 c157: - pi_11_1 + pi_12_1 >= 0
 c158: - pi_11_1 + pi_12_1 >= 0
 c159: - pi_11_1 + pi_12_2 >= 3
 c160: - pi_11_1 + pi_12_2 >= 6
 c161: - pi_11_1 + pi_12_3 >= 6
 c162: - pi_11_1 + pi_12_3 >= 12
 c163: - pi_11_2 + pi_12_2 >= 0
 c164: - pi_11_2 + pi_12_2 >= 0
 c165: - pi_11_2 + pi_12_3 >= 3
 c166: - pi_11_2 + pi_12_3 >= 6
 c167: - pi_11_3 + pi_12_3 >= 0
 c168: - pi_11_3 + pi_12_3 >= 0
 c169: - pi_12_0 + pi_13_0 >= 0
 c170: - pi_12_0 + pi_13_0 >= 0
 c171: - pi_12_0 + pi_13_1 >= 3
 c172: - pi_12_0 + pi_13_1 >= 6
 c173: - pi_12_0 + pi_13_2 >= 6
 c174: - pi_12_0 + pi_13_2 >= 12
 c175: - pi_12_0 + pi_13_3 >= 9
 c176: - pi_12_0 + pi_13_3 >= 18
 c177: - pi_12_1 + pi_13_1 >= 0
 c178: - pi_12_1 + pi_13_1 >= 0
 c179: - pi_12_1 + pi_13_2 >= 3
 c180: - pi_12_1 + pi_13_2 >= 6
 c181: - pi_12_1 + pi_13_3 >= 6
 c182: - pi_12_1 + pi_13_3 >= 12
 c183: - pi_12_2 + pi_13_2 >= 0
 c184: - pi_12_2 + pi_13_2 >= 0
 c185: - pi_12_2 + pi_13_3 >= 3
 c186: - pi_12_2 + pi_13_3 >= 6
 c187: - pi_12_3 + pi_13_3 >= 0
 c188: - pi_12_3 + pi_13_3 >= 0
 c189: - pi_13_0 + pi_14_0 >= 0
 c190: - pi_13_0 + pi_14_0 >= 0
 c191: - pi_13_0 + pi_14_1 >= 3
 c192: - pi_13_0 + pi_14_1 >= 6
 c193: - pi_13_0 + pi_14_2 >= 6
 c194: - pi_13_0 + pi_14_2 >= 12
 c195: - pi_13_0 + pi_14_3 >= 9
 c196: - pi_13_0 + pi_14_3 >= 18
 c197: - pi_13_1 + pi_14_1 >= 0
 c198: - pi_13_1 + pi_14_1 >= 0
 c199: - pi_13_1 + pi_14_2 >= 3
 c200: - pi_13_1 + pi_14_2 >= 6
 c201: - pi_13_1 + pi_14_3 >= 6
 c202: - pi_13_1 + pi_14_3 >= 12
 c203: - pi_13_2 + pi_14_2 >= 0
 c204: - pi_13_2 + pi_14_2 >= 0
 c205: - pi_13_2 + pi_14_3 >= 3
 c206: - pi_13_2 + pi_14_3 >= 6
 c207: - pi_13_3 + pi_14_3 >= 0
 c208: - pi_13_3 + pi_14_3 >= 0
 c209: - pi_13_0 + pi_14_0 >= -140
 c210: - pi_13_0 + pi_14_0 >= -140
 c211: - pi_13_0 + pi_14_1 >= -127
 c212: - pi_13_0 + pi_14_1 >= -134
 c213: - pi_13_0 + pi_14_2 >= -114
 c214: - pi_13_0 + pi_14_2 >= -128
 c215: - pi_13_0 + pi_14_3 >= -101
 c216: - pi_13_0 + pi_14_3 >= -122
 c217: - pi_13_1 + pi_14_1 >= -140
 c218: - pi_13_1 + pi_14_1 >= -140
 c219: - pi_13_1 + pi_14_2 >= -127
 c220: - pi_13_1 + pi_14_2 >= -134
 c221: - pi_13_1 + pi_14_3 >= -114
 c222: - pi_13_1 + pi_14_3 >= -128
 c223: - pi_13_2 + pi_14_2 >= -140
 c224: - pi_13_2 + pi_14_2 >= -140
 c225: - pi_13_2 + pi_14_3 >= -127
 c226: - pi_13_2 + pi_14_3 >= -134
 c227: - pi_13_3 + pi_14_3 >= -140
 c228: - pi_13_3 + pi_14_3 >= -140
 c229: - pi_14_0 + pi_15_0 >= 0
 c230: - pi_14_1 + pi_15_0 >= 0
 c231: - pi_14_2 + pi_15_0 >= 0
 c232: - pi_14_3 + pi_15_0 >= 0
 c233: - pi_0_0 + pi_15_0 >= 0
 c234: pi_0_0  = 0
Bounds
      pi_1_0 Free
      pi_0_0 Free
      pi_1_1 Free
      pi_1_2 Free
      pi_1_3 Free
      pi_2_0 Free
      pi_2_1 Free
      pi_2_2 Free
      pi_2_3 Free
      pi_3_0 Free
      pi_3_1 Free
      pi_3_2 Free
      pi_3_3 Free
      pi_4_0 Free
      pi_4_1 Free
      pi_4_2 Free
      pi_4_3 Free
      pi_5_0 Free
      pi_5_1 Free
      pi_5_2 Free
      pi_5_3 Free
      pi_6_0 Free
      pi_6_1 Free
      pi_6_2 Free
      pi_6_3 Free
      pi_7_0 Free
      pi_7_1 Free
      pi_7_2 Free
      pi_7_3 Free
      pi_8_0 Free
      pi_8_1 Free
      pi_8_2 Free
      pi_8_3 Free
      pi_9_0 Free
      pi_9_1 Free
      pi_9_2 Free
      pi_9_3 Free
      pi_10_0 Free
      pi_10_1 Free
      pi_10_2 Free
      pi_10_3 Free
      pi_11_0 Free
      pi_11_1 Free
      pi_11_2 Free
      pi_11_3 Free
      pi_12_0 Free
      pi_12_1 Free
      pi_12_2 Free
      pi_12_3 Free
      pi_13_0 Free
      pi_13_1 Free
      pi_13_2 Free
      pi_13_3 Free
      pi_14_0 Free
      pi_14_1 Free
      pi_14_2 Free
      pi_14_3 Free
      pi_15_0 Free
End
